n = 50;
C = 6311;
w = [111,408,469,136,116,258,455,158,281,213,275,363,36,358,67,178,463,152,180,340,235,349,445,447,135,34,125,277,456,295,38,262,330,247,284,203,186,150,453,67,486,484,51,271,368,32,397,8,198,293];
p = [111,408,469,136,116,258,455,158,281,213,275,363,36,358,67,178,463,152,180,340,235,349,445,447,135,34,125,277,456,295,38,262,330,247,284,203,186,150,453,67,486,484,51,271,368,32,397,8,198,293];
